c Random 3-SAT n=8 m=34 seed=42
p cnf 8 34
2 1 -6 0
2 5 4 0
-1 -5 2 0
-8 5 -3 0
7 -3 8 0
2 4 1 0
-1 -6 4 0
-5 -7 -6 0
4 7 -1 0
2 -5 6 0
-7 3 6 0
-1 2 8 0
6 -2 -8 0
3 -8 2 0
7 -5 4 0
-8 1 7 0
7 -5 1 0
-5 8 -1 0
1 -6 7 0
2 -7 -6 0
1 5 3 0
8 -5 2 0
-4 -5 6 0
4 -3 -6 0
-8 2 4 0
7 -3 4 0
-1 -6 -5 0
-8 -3 -4 0
8 -2 -7 0
1 -6 -3 0
-4 -8 -1 0
-5 -4 3 0
-5 -8 -6 0
5 -8 4 0
